p cnf 34 96
a 1 0
e 2 3 4 5 6 7 8 9 10 11 12 13 14 15 16 17 18 19 20 21 22 23 24 25 26 27 28 29 30 31 32 33 34 0
1 -2 0
-1 -2 0
-3 4 -5 0
3 -4 -5 0
-3 -4 5 0
3 4 5 0
6 -2 0
6 -5 0
2 5 -6 0
-7 -3 0
-7 -3 0
3 7 0
8 4 0
8 1 0
-4 -1 -8 0
-9 -8 0
-9 -3 0
8 3 9 0
7 9 -10 0
-7 -9 -10 0
7 -9 10 0
-7 9 10 0
-11 10 0
-11 2 0
-10 -2 11 0
-11 10 -12 0
11 -10 -12 0
-11 -10 12 0
11 10 12 0
-13 -12 0
-13 5 0
12 -5 13 0
14 -13 0
14 -13 0
13 -14 0
9 -2 -16 0
-9 2 -16 0
9 2 16 0
-9 -2 16 0
18 -2 0
18 -17 0
2 17 -18 0
-19 16 0
-19 18 0
-16 -18 19 0
-15 -19 -20 0
15 19 -20 0
-15 19 20 0
15 -19 20 0
11 -20 -21 0
-11 20 -21 0
11 20 21 0
-11 -20 21 0
22 -14 0
22 -21 0
14 21 -22 0
23 -6 0
23 22 0
6 -22 -23 0
-5 -9 -25 0
5 9 -25 0
-5 9 25 0
5 -9 25 0
26 24 0
26 25 0
-24 -25 -26 0
28 -27 0
28 1 0
27 -1 -28 0
-29 7 0
-29 -28 0
-7 28 29 0
-26 -29 -30 0
26 29 -30 0
-26 29 30 0
26 -29 30 0
31 7 -32 0
-31 -7 -32 0
31 -7 32 0
-31 7 32 0
-33 -30 0
-33 32 0
30 -32 33 0
-34 -23 0
-34 33 0
23 -33 34 0
-3 11 21 -22 33 0
-24 -26 -12 -7 -32 -8 0
1 7 -18 13 -16 29 11 0
-14 2 -22 17 6 33 9 0
10 28 -20 -6 0
-20 23 -28 -18 -21 22 8 0
23 -17 7 -6 -27 14 25 0
-16 9 -14 0
-29 -15 -5 -26 -18 31 1 0
34 0
